Results/Experiment 2 Results/New Benchmark/output_p1_0.75_p2_0.00_n_20_11.lp
clingo version 5.4.0
Reading from tempSRTISolver.lp ...
Solving...
Answer: 1
matched(3,2) matched(2,3) matched(5,4) matched(4,5) matched(7,6) matched(6,7) matched(1,8) matched(8,1) matched(11,10) matched(10,11) matched(9,12) matched(12,9) matched(18,14) matched(19,15) matched(13,16) matched(20,17) matched(14,18) matched(15,19) matched(17,20) matched(16,13)
Optimization: 91
Answer: 2
matched(3,2) matched(2,3) matched(5,4) matched(4,5) matched(7,6) matched(6,7) matched(1,8) matched(8,1) matched(9,10) matched(12,11) matched(11,12) matched(10,9) matched(15,14) matched(14,15) matched(18,16) matched(20,17) matched(16,18) matched(13,19) matched(17,20) matched(19,13)
Optimization: 89
Answer: 3
matched(3,2) matched(2,3) matched(5,4) matched(4,5) matched(7,6) matched(6,7) matched(1,8) matched(8,1) matched(11,10) matched(10,11) matched(9,12) matched(12,9) matched(15,14) matched(14,15) matched(18,16) matched(20,17) matched(16,18) matched(13,19) matched(17,20) matched(19,13)
Optimization: 88
Answer: 4
matched(3,2) matched(2,3) matched(5,4) matched(4,5) matched(7,6) matched(6,7) matched(1,8) matched(8,1) matched(11,10) matched(10,11) matched(9,12) matched(12,9) matched(16,14) matched(17,15) matched(14,16) matched(15,17) matched(19,18) matched(18,19) matched(13,20) matched(20,13)
Optimization: 87
Answer: 5
matched(4,2) matched(5,3) matched(2,4) matched(3,5) matched(7,6) matched(6,7) matched(1,8) matched(8,1) matched(11,10) matched(10,11) matched(9,12) matched(12,9) matched(15,14) matched(14,15) matched(18,16) matched(20,17) matched(16,18) matched(13,19) matched(17,20) matched(19,13)
Optimization: 85
Answer: 6
matched(4,2) matched(5,3) matched(2,4) matched(3,5) matched(7,6) matched(6,7) matched(1,8) matched(8,1) matched(11,10) matched(10,11) matched(9,12) matched(12,9) matched(16,14) matched(17,15) matched(14,16) matched(15,17) matched(19,18) matched(18,19) matched(13,20) matched(20,13)
Optimization: 84
OPTIMUM FOUND

Models       : 6
  Optimum    : yes
Optimization : 84
Calls        : 1
Time         : 0.011s (Solving: 0.00s 1st Model: 0.00s Unsat: 0.00s)
CPU Time     : 0.011s
